(set-logic QF_FF)
(define-sort FF0 () (_ FiniteField 18446744069414584321))
(declare-fun s_1 () FF0)
(declare-fun s_2 () FF0)
(declare-fun s_3 () FF0)
(declare-fun s_4 () FF0)
(declare-fun s_5 () FF0)
(declare-fun s_6 () FF0)
(declare-fun v_0 () FF0)
(declare-fun v_46 () FF0)
(declare-fun v_47 () FF0)
(declare-fun v_48 () FF0)
(declare-fun v_49 () FF0)
(declare-fun v_50 () FF0)
(declare-fun v_5 () FF0)
(declare-fun v_8 () FF0)
(declare-fun v_10 () FF0)
(declare-fun v_15 () FF0)
(declare-fun v_18 () FF0)
(declare-fun v_20 () FF0)
(declare-fun v_25 () FF0)
(declare-fun v_28 () FF0)
(declare-fun v_30 () FF0)
(declare-fun v_35 () FF0)
(declare-fun v_38 () FF0)
(declare-fun v_40 () FF0)
(assert (= (as ff0 FF0) (ff.mul s_6  s_1 )))
(assert (= (as ff0 FF0) (ff.mul (ff.add (as ff18446744069414584320 FF0) s_6 ) s_2 )))
(assert (= (as ff0 FF0) (ff.mul (ff.add s_6 (as ff18446744069414584319 FF0) ) s_3 )))
(assert (= (as ff0 FF0) (ff.mul (ff.add s_6 (as ff18446744069414584318 FF0) ) s_4 )))
(assert (= (ff.add (ff.mul s_5 (as ff18446744069414584320 FF0)) s_1 s_3 s_4 s_2 ) (as ff0 FF0)))
(assert (= (as ff0 FF0) (ff.mul (ff.add (as ff18446744069414584320 FF0) s_5 ) s_5 )))
(define-fun @Decoder_0 ((macro_v_0 FF0) (macro_v_46 FF0) (macro_v_47 FF0) (macro_v_48 FF0) (macro_v_49 FF0) (macro_v_50 FF0) (macro_v_5 FF0) (macro_v_8 FF0) (macro_v_10 FF0) (macro_v_15 FF0) (macro_v_18 FF0) (macro_v_20 FF0) (macro_v_25 FF0) (macro_v_28 FF0) (macro_v_30 FF0) (macro_v_35 FF0) (macro_v_38 FF0) (macro_v_40 FF0) ) Bool
 (and  (and  (and  (and  (and  (and  (! true :meta-data "array.new 4 %nondet") (and  (! true :meta-data "%felt_const_0 := 0") (and  (! true :meta-data "%felt_const_0_0 := 0") (and  (! true :meta-data "%arg1 := %felt_const_0") (and  (! true :meta-data "%arg2 := %felt_const_0_0") (and  (! (and  (and  (! (and  (= macro_v_5 (ite  (= 0 macro_v_0) 1 0)) (ff.range macro_v_5 0 1) ) :meta-data "%1_aft11 := bool.eq %arg2 %arg0") (and  (! (ite  (= macro_v_5 1) (and  (and  (! true :meta-data "%felt_const_1_1_aft11 := 1") (and  (! true :meta-data "%6_aft11 := %arg2") (! true :meta-data "array.write %felt_const_1_1_aft11 %nondet[%6_aft11]") ) ) (= macro_v_8 1) ) (and  (and  (! true :meta-data "%felt_const_0_1_aft11 := 0") (and  (! true :meta-data "%6_aft11 := %arg2") (! true :meta-data "array.write %felt_const_0_1_aft11 %nondet[%6_aft11]") ) ) (= macro_v_8 0) ) ) :meta-data "if (%1_aft11 == 1)") (and  (! true :meta-data "%2_aft11 := %arg2") (and  (! true :meta-data "array.read %nondet[%2_aft11] %3_aft11") (and  (! (= macro_v_10 (ff.add 0 macro_v_8)) :meta-data "%4_aft11 := felt.add %arg1 %3_aft11") (and  (! true :meta-data "%felt_const_1_aft11 := 1") (and  (! true :meta-data "%5_aft11 := felt.add %arg2 %felt_const_1_aft11") (and  (! true :meta-data "%arg1 := %4_aft11") (and  (! true :meta-data "%arg2 := %5_aft11") (! true :meta-data "%0#0 := %arg1") ) ) ) ) ) ) ) ) ) (and  (and  (! (and  (= macro_v_15 (ite  (= 1 macro_v_0) 1 0)) (ff.range macro_v_15 0 1) ) :meta-data "%1_aft11 := bool.eq %arg2 %arg0") (and  (! (ite  (= macro_v_15 1) (and  (and  (! true :meta-data "%felt_const_1_1_aft11 := 1") (and  (! true :meta-data "%6_aft11 := %arg2") (! true :meta-data "array.write %felt_const_1_1_aft11 %nondet[%6_aft11]") ) ) (= macro_v_18 1) ) (and  (and  (! true :meta-data "%felt_const_0_1_aft11 := 0") (and  (! true :meta-data "%6_aft11 := %arg2") (! true :meta-data "array.write %felt_const_0_1_aft11 %nondet[%6_aft11]") ) ) (= macro_v_18 0) ) ) :meta-data "if (%1_aft11 == 1)") (and  (! true :meta-data "%2_aft11 := %arg2") (and  (! true :meta-data "array.read %nondet[%2_aft11] %3_aft11") (and  (! (= macro_v_20 (ff.add macro_v_10 macro_v_18)) :meta-data "%4_aft11 := felt.add %arg1 %3_aft11") (and  (! true :meta-data "%felt_const_1_aft11 := 1") (and  (! true :meta-data "%5_aft11 := felt.add %arg2 %felt_const_1_aft11") (and  (! true :meta-data "%arg1 := %4_aft11") (and  (! true :meta-data "%arg2 := %5_aft11") (! true :meta-data "%0#0 := %arg1") ) ) ) ) ) ) ) ) ) (and  (and  (! (and  (= macro_v_25 (ite  (= 2 macro_v_0) 1 0)) (ff.range macro_v_25 0 1) ) :meta-data "%1_aft11 := bool.eq %arg2 %arg0") (and  (! (ite  (= macro_v_25 1) (and  (and  (! true :meta-data "%felt_const_1_1_aft11 := 1") (and  (! true :meta-data "%6_aft11 := %arg2") (! true :meta-data "array.write %felt_const_1_1_aft11 %nondet[%6_aft11]") ) ) (= macro_v_28 1) ) (and  (and  (! true :meta-data "%felt_const_0_1_aft11 := 0") (and  (! true :meta-data "%6_aft11 := %arg2") (! true :meta-data "array.write %felt_const_0_1_aft11 %nondet[%6_aft11]") ) ) (= macro_v_28 0) ) ) :meta-data "if (%1_aft11 == 1)") (and  (! true :meta-data "%2_aft11 := %arg2") (and  (! true :meta-data "array.read %nondet[%2_aft11] %3_aft11") (and  (! (= macro_v_30 (ff.add macro_v_20 macro_v_28)) :meta-data "%4_aft11 := felt.add %arg1 %3_aft11") (and  (! true :meta-data "%felt_const_1_aft11 := 1") (and  (! true :meta-data "%5_aft11 := felt.add %arg2 %felt_const_1_aft11") (and  (! true :meta-data "%arg1 := %4_aft11") (and  (! true :meta-data "%arg2 := %5_aft11") (! true :meta-data "%0#0 := %arg1") ) ) ) ) ) ) ) ) ) (and  (! (and  (= macro_v_35 (ite  (= 3 macro_v_0) 1 0)) (ff.range macro_v_35 0 1) ) :meta-data "%1_aft11 := bool.eq %arg2 %arg0") (and  (! (ite  (= macro_v_35 1) (and  (and  (! true :meta-data "%felt_const_1_1_aft11 := 1") (and  (! true :meta-data "%6_aft11 := %arg2") (! true :meta-data "array.write %felt_const_1_1_aft11 %nondet[%6_aft11]") ) ) (= macro_v_38 1) ) (and  (and  (! true :meta-data "%felt_const_0_1_aft11 := 0") (and  (! true :meta-data "%6_aft11 := %arg2") (! true :meta-data "array.write %felt_const_0_1_aft11 %nondet[%6_aft11]") ) ) (= macro_v_38 0) ) ) :meta-data "if (%1_aft11 == 1)") (and  (! true :meta-data "%2_aft11 := %arg2") (and  (! true :meta-data "array.read %nondet[%2_aft11] %3_aft11") (and  (! (= macro_v_40 (ff.add macro_v_30 macro_v_38)) :meta-data "%4_aft11 := felt.add %arg1 %3_aft11") (and  (! true :meta-data "%felt_const_1_aft11 := 1") (and  (! true :meta-data "%5_aft11 := felt.add %arg2 %felt_const_1_aft11") (and  (! true :meta-data "%arg1 := %4_aft11") (and  (! true :meta-data "%arg2 := %5_aft11") (! true :meta-data "%0#0 := %arg1") ) ) ) ) ) ) ) ) ) ) ) ) :meta-data "repeat_exp 4") (and  (! true :meta-data "success := %0#0") (! true :meta-data "array.copy %nondet out") ) ) ) ) ) ) ) (= macro_v_46 macro_v_8) ) (= macro_v_47 macro_v_18) ) (= macro_v_48 macro_v_28) ) (= macro_v_49 macro_v_38) ) (= macro_v_50 macro_v_40) ) )

(define-fun main ((macro_v_0 FF0) (macro_v_18 FF0) (macro_v_19 FF0) (macro_v_20 FF0) (macro_v_21 FF0) (macro_v_22 FF0) (macro_v_1 FF0) (macro_v_2 FF0) (macro_v_3 FF0) (macro_v_4 FF0) (macro_v_5 FF0) (macro_v_6 FF0) (macro_v_7 FF0) (macro_v_8 FF0) (macro_v_9 FF0) (macro_v_10 FF0) (macro_v_11 FF0) (macro_v_12 FF0) (macro_v_13 FF0) (macro_v_14 FF0) (macro_v_15 FF0) (macro_v_16 FF0) (macro_v_17 FF0) ) Bool
true)

(assert  (and  (and  (and  (and  (and  (and  (! true :meta-data "array.new 4 %nondet") (and  (! true :meta-data "%felt_const_0 := 0") (and  (! true :meta-data "%felt_const_0_0 := 0") (and  (! true :meta-data "%arg1 := %felt_const_0") (and  (! true :meta-data "%arg2 := %felt_const_0_0") (and  (! (and  (and  (! (and  (= v_5 (ite  (= 0 v_0) 1 0)) (ff.range v_5 0 1) ) :meta-data "%1_aft11 := bool.eq %arg2 %arg0") (and  (! (ite  (= v_5 1) (and  (and  (! true :meta-data "%felt_const_1_1_aft11 := 1") (and  (! true :meta-data "%6_aft11 := %arg2") (! true :meta-data "array.write %felt_const_1_1_aft11 %nondet[%6_aft11]") ) ) (= v_8 1) ) (and  (and  (! true :meta-data "%felt_const_0_1_aft11 := 0") (and  (! true :meta-data "%6_aft11 := %arg2") (! true :meta-data "array.write %felt_const_0_1_aft11 %nondet[%6_aft11]") ) ) (= v_8 0) ) ) :meta-data "if (%1_aft11 == 1)") (and  (! true :meta-data "%2_aft11 := %arg2") (and  (! true :meta-data "array.read %nondet[%2_aft11] %3_aft11") (and  (! (= v_10 (ff.add 0 v_8)) :meta-data "%4_aft11 := felt.add %arg1 %3_aft11") (and  (! true :meta-data "%felt_const_1_aft11 := 1") (and  (! true :meta-data "%5_aft11 := felt.add %arg2 %felt_const_1_aft11") (and  (! true :meta-data "%arg1 := %4_aft11") (and  (! true :meta-data "%arg2 := %5_aft11") (! true :meta-data "%0#0 := %arg1") ) ) ) ) ) ) ) ) ) (and  (and  (! (and  (= v_15 (ite  (= 1 v_0) 1 0)) (ff.range v_15 0 1) ) :meta-data "%1_aft11 := bool.eq %arg2 %arg0") (and  (! (ite  (= v_15 1) (and  (and  (! true :meta-data "%felt_const_1_1_aft11 := 1") (and  (! true :meta-data "%6_aft11 := %arg2") (! true :meta-data "array.write %felt_const_1_1_aft11 %nondet[%6_aft11]") ) ) (= v_18 1) ) (and  (and  (! true :meta-data "%felt_const_0_1_aft11 := 0") (and  (! true :meta-data "%6_aft11 := %arg2") (! true :meta-data "array.write %felt_const_0_1_aft11 %nondet[%6_aft11]") ) ) (= v_18 0) ) ) :meta-data "if (%1_aft11 == 1)") (and  (! true :meta-data "%2_aft11 := %arg2") (and  (! true :meta-data "array.read %nondet[%2_aft11] %3_aft11") (and  (! (= v_20 (ff.add v_10 v_18)) :meta-data "%4_aft11 := felt.add %arg1 %3_aft11") (and  (! true :meta-data "%felt_const_1_aft11 := 1") (and  (! true :meta-data "%5_aft11 := felt.add %arg2 %felt_const_1_aft11") (and  (! true :meta-data "%arg1 := %4_aft11") (and  (! true :meta-data "%arg2 := %5_aft11") (! true :meta-data "%0#0 := %arg1") ) ) ) ) ) ) ) ) ) (and  (and  (! (and  (= v_25 (ite  (= 2 v_0) 1 0)) (ff.range v_25 0 1) ) :meta-data "%1_aft11 := bool.eq %arg2 %arg0") (and  (! (ite  (= v_25 1) (and  (and  (! true :meta-data "%felt_const_1_1_aft11 := 1") (and  (! true :meta-data "%6_aft11 := %arg2") (! true :meta-data "array.write %felt_const_1_1_aft11 %nondet[%6_aft11]") ) ) (= v_28 1) ) (and  (and  (! true :meta-data "%felt_const_0_1_aft11 := 0") (and  (! true :meta-data "%6_aft11 := %arg2") (! true :meta-data "array.write %felt_const_0_1_aft11 %nondet[%6_aft11]") ) ) (= v_28 0) ) ) :meta-data "if (%1_aft11 == 1)") (and  (! true :meta-data "%2_aft11 := %arg2") (and  (! true :meta-data "array.read %nondet[%2_aft11] %3_aft11") (and  (! (= v_30 (ff.add v_20 v_28)) :meta-data "%4_aft11 := felt.add %arg1 %3_aft11") (and  (! true :meta-data "%felt_const_1_aft11 := 1") (and  (! true :meta-data "%5_aft11 := felt.add %arg2 %felt_const_1_aft11") (and  (! true :meta-data "%arg1 := %4_aft11") (and  (! true :meta-data "%arg2 := %5_aft11") (! true :meta-data "%0#0 := %arg1") ) ) ) ) ) ) ) ) ) (and  (! (and  (= v_35 (ite  (= 3 v_0) 1 0)) (ff.range v_35 0 1) ) :meta-data "%1_aft11 := bool.eq %arg2 %arg0") (and  (! (ite  (= v_35 1) (and  (and  (! true :meta-data "%felt_const_1_1_aft11 := 1") (and  (! true :meta-data "%6_aft11 := %arg2") (! true :meta-data "array.write %felt_const_1_1_aft11 %nondet[%6_aft11]") ) ) (= v_38 1) ) (and  (and  (! true :meta-data "%felt_const_0_1_aft11 := 0") (and  (! true :meta-data "%6_aft11 := %arg2") (! true :meta-data "array.write %felt_const_0_1_aft11 %nondet[%6_aft11]") ) ) (= v_38 0) ) ) :meta-data "if (%1_aft11 == 1)") (and  (! true :meta-data "%2_aft11 := %arg2") (and  (! true :meta-data "array.read %nondet[%2_aft11] %3_aft11") (and  (! (= v_40 (ff.add v_30 v_38)) :meta-data "%4_aft11 := felt.add %arg1 %3_aft11") (and  (! true :meta-data "%felt_const_1_aft11 := 1") (and  (! true :meta-data "%5_aft11 := felt.add %arg2 %felt_const_1_aft11") (and  (! true :meta-data "%arg1 := %4_aft11") (and  (! true :meta-data "%arg2 := %5_aft11") (! true :meta-data "%0#0 := %arg1") ) ) ) ) ) ) ) ) ) ) ) ) :meta-data "repeat_exp 4") (and  (! true :meta-data "success := %0#0") (! true :meta-data "array.copy %nondet out") ) ) ) ) ) ) ) (= v_46 v_8) ) (= v_47 v_18) ) (= v_48 v_28) ) (= v_49 v_38) ) (= v_50 v_40) ) )
(assert (= s_6 v_0))
(assert (not (and  (= s_1 v_46)  (= s_2 v_47)  (= s_3 v_48)  (= s_4 v_49)  (= s_5 v_50) )))
(check-sat)
